# 21312
param k := 6;
param n := 60;
param s := 1;
set E :=  (0,19) (1,21) (1,36) (2,4) (2,17) (2,18) (2,56) (3,27) (5,31) (6,10) (6,20) (6,42) (6,59) (7,25) (7,37) (8,9) (8,28) (9,12) (9,48) (9,51) (11,20) (13,29) (14,30) (15,24) (15,44) (16,49) (17,41) (18,22) (19,49) (21,29) (21,38) (22,58) (23,36) (24,35) (24,53) (25,29) (25,34) (26,45) (27,48) (29,40) (30,33) (30,57) (31,52) (32,42) (32,44) (32,57) (38,57) (39,49) (39,52) (41,45) (41,50) (42,49) (43,58) (44,56) (46,58) (47,54) (51,54) (54,55) (55,58);